data/solutions/planning/wellformed/moderate/highest_rank_objective/wellformed_moderate_instance16_cplex.sol
Elapsed time: 1.29
Nodes explored: 2002
Nodes left: -
Relative gap: -
Upper bound: 41913.0
Lower bound: -
C[0]=5988.0
C[1]=5987.0
C[2]=5987.0
y[0]=0
y[1]=1
y[2]=2
y[3]=0
y[4]=1
y[5]=0
y[6]=1
y[7]=0
y[8]=1
y[9]=1
y[10]=2
y[11]=0
y[12]=2
y[13]=0
y[14]=2
y[15]=2
y[16]=0
y[17]=0
y[18]=0
y[19]=1
y[20]=2
y[21]=1
y[22]=1
y[23]=0
y[24]=0
y[25]=1
y[26]=0
y[27]=0
y[28]=2
y[29]=1
y[30]=0
y[31]=1
y[32]=2
y[33]=1
y[34]=0
y[35]=1
y[36]=2
y[37]=2
y[38]=2
y[39]=1
